GLPSOL--GLPK LP/MIP Solver 5.0
Parameter(s) specified in the command line:
 --lp ../modeles/2_224.lp --log 2_224.log
Reading problem data from '../modeles/2_224.lp'...
457 rows, 900 columns, 3142 non-zeros
448 integer variables, all of which are binary
1365 lines were read
GLPK Integer Optimizer 5.0
457 rows, 900 columns, 3142 non-zeros
448 integer variables, all of which are binary
Preprocessing...
444 constraint coefficient(s) were reduced
457 rows, 898 columns, 3140 non-zeros
448 integer variables, all of which are binary
Scaling...
 A: min|aij| =  3.189e-04  max|aij| =  4.000e+00  ratio =  1.254e+04
GM: min|aij| =  9.449e-02  max|aij| =  1.058e+01  ratio =  1.120e+02
EQ: min|aij| =  8.929e-03  max|aij| =  1.000e+00  ratio =  1.120e+02
2N: min|aij| =  5.102e-03  max|aij| =  1.696e+00  ratio =  3.324e+02
Constructing initial basis...
Size of triangular part is 457
Solving LP relaxation...
GLPK Simplex Optimizer 5.0
457 rows, 898 columns, 3140 non-zeros
      0: obj =   4.000000000e+00 inf =   5.500e+01 (5)
     37: obj =   4.524179723e-01 inf =   0.000e+00 (0)
*   113: obj =  -1.414104882e+00 inf =   1.101e-16 (0)
OPTIMAL LP SOLUTION FOUND
Integer optimization begins...
Long-step dual simplex will be used
+   113: mip =     not found yet >=              -inf        (1; 0)
+   116: >>>>>  -1.414104882e+00 >=  -1.414104882e+00 < 0.1% (3; 0)
+   116: mip =  -1.414104882e+00 >=     tree is empty   0.0% (0; 5)
INTEGER OPTIMAL SOLUTION FOUND
Time used:   0.0 secs
Memory used: 1.3 Mb (1414540 bytes)
